%%%mzn-stat: initTime=0.014894488
%%%mzn-stat: objective=240
%%%mzn-stat: nodes=1461
%%%mzn-stat: restarts=0
%%%mzn-stat: peakDepth=382
%%%mzn-stat: solveTime=0.372198436
%%%mzn-stat: variables=1577
%%%mzn-stat: propagators=1199
%%%mzn-stat: failures=865
%%%mzn-stat: propagations=248369
%%%mzn-stat: nogoods=865
%%%mzn-stat: AverageConflictSize=11.4
%%%mzn-stat: NumUnitNogoodsLearned=239
%%%mzn-stat: AverageLearnedNogoodLength=107.30057803468208
%%%mzn-stat: AverageBacktrackAmount=0
%%%mzn-stat: AverageLbd=15.910982658959538
%%%mzn-stat-end
maxleg = 240;
succ = array1d(1..50,[32, 20, 9, 23, 2, 48, 36, 21, 16, 18, 3, 41, 31, 15, 40, 10, 47, 33, 17, 28, 46, 38, 1, 49, 35, 22, 13, 37, 8, 24, 7, 26, 12, 39, 50, 44, 19, 6, 45, 5, 4, 34, 42, 25, 30, 14, 11, 27, 29, 43]);
% time elapsed: 2.04 s
----------
==========
% time elapsed: 2.04 s
%%%mzn-stat: initTime=0.014894488
%%%mzn-stat: objective=240
%%%mzn-stat: nodes=1461
%%%mzn-stat: restarts=0
%%%mzn-stat: peakDepth=382
%%%mzn-stat: solveTime=0.372202589
%%%mzn-stat: variables=1577
%%%mzn-stat: propagators=1199
%%%mzn-stat: failures=865
%%%mzn-stat: propagations=248369
%%%mzn-stat: nogoods=865
%%%mzn-stat: AverageConflictSize=11.4
%%%mzn-stat: NumUnitNogoodsLearned=239
%%%mzn-stat: AverageLearnedNogoodLength=107.30057803468208
%%%mzn-stat: AverageBacktrackAmount=0
%%%mzn-stat: AverageLbd=15.910982658959538
%%%mzn-stat-end
